results/res_prop_muc/res_Cimatti_mathsat_cores/QF_IDL/DTP_k2_n35_c245_s19.smt.smt2.res
unsat
( c0
  c1
  c10
  c100
  c101
  c103
  c105
  c106
  c107
  c108
  c109
  c11
  c111
  c113
  c115
  c116
  c117
  c12
  c120
  c121
  c122
  c123
  c124
  c127
  c128
  c13
  c131
  c133
  c134
  c138
  c139
  c144
  c145
  c146
  c148
  c149
  c151
  c152
  c154
  c155
  c157
  c159
  c16
  c160
  c162
  c163
  c164
  c165
  c166
  c167
  c169
  c17
  c172
  c175
  c176
  c178
  c179
  c18
  c181
  c184
  c187
  c19
  c190
  c194
  c195
  c196
  c20
  c201
  c206
  c207
  c208
  c21
  c210
  c211
  c212
  c214
  c217
  c218
  c221
  c222
  c225
  c226
  c228
  c23
  c230
  c235
  c236
  c237
  c238
  c239
  c24
  c242
  c243
  c25
  c27
  c29
  c3
  c30
  c33
  c35
  c37
  c39
  c40
  c41
  c42
  c46
  c47
  c49
  c5
  c51
  c52
  c53
  c54
  c55
  c56
  c57
  c58
  c60
  c61
  c62
  c63
  c64
  c65
  c7
  c70
  c74
  c75
  c78
  c79
  c8
  c81
  c86
  c87
  c90
  c92
  c93
  c95
  c97
  c98
  c99 )
